POSCAR file written by OVITO Basic 3.9.1
1
34.8041822617 0.0 0.0
0.0 4.4110729894 0.0
0.0 0.0 19.000637957
Type_1 
244 
Direct
0.1077232607 0.5181347045 0.4509727526
0.0356359472 0.5158314101 0.4440029866
0.1054861733 0.8350303903 0.5628916263
0.0336275678 0.8339920942 0.5587601861
0.0715649625 0.0151187705 0.4474055039
0.9993661031 0.0148195235 0.4412288692
0.9978978888 0.3368862868 0.5531056391
0.0697651788 0.3343064156 0.560285398
0.0687391527 0.6544122047 0.670725374
0.1044365867 0.1540894929 0.6753936383
0.0328877142 0.1559235138 0.6670123408
0.9971106271 0.6551897933 0.6691643738
0.104014511 0.4771877512 0.7850089052
0.0324808666 0.476142654 0.7806469464
0.1026333552 0.8004378999 0.8960551766
0.0316076956 0.800755283 0.8864176055
0.0680501551 0.9759439507 0.7823137325
0.9967083766 0.9789137496 0.7788896369
0.9961193669 0.3011716204 0.8857592065
0.0673579969 0.3005799276 0.8892490893
0.1792738572 0.5142036882 0.4596793023
0.2142837302 0.0086532234 0.4662453977
0.2491528155 0.4913951787 0.4728599124
0.2472289087 0.8241690874 0.5872029153
0.1768230023 0.8335908313 0.5709645131
0.1436743999 0.0170684095 0.4545257912
0.1412172239 0.3333111929 0.566921491
0.2119081536 0.3305975674 0.5807426059
0.2105623383 0.6550243007 0.69289884
0.2465160634 0.153379915 0.6966413459
0.1755289049 0.1553499572 0.6865148438
0.140161029 0.6548089335 0.6775498817
0.24640056 0.4797562872 0.8076518291
0.1745614925 0.4771084054 0.803683015
0.2459218819 0.8072865737 0.9140761505
0.1734929427 0.8053618719 0.9090726342
0.2103431118 0.9789386869 0.8081997054
0.1392194755 0.9765379105 0.7909639684
0.1378500999 0.3004892468 0.9051011887
0.2097673189 0.3081789858 0.9121262159
0.3894307844 0.4398272268 0.4655896302
0.3187295112 0.4543180321 0.4699779039
0.3898359082 0.7932174345 0.5786116248
0.3183243875 0.8052258506 0.5810957519
0.354049979 0.9441149602 0.4675653533
0.2835889068 0.9732416603 0.4718083688
0.2828697404 0.3141661912 0.5852550859
0.3539637825 0.2974922435 0.5799631583
0.3539494164 0.6369198621 0.689984201
0.3898617671 0.1335049321 0.6885300393
0.3183042749 0.1403332027 0.6945735206
0.2824459407 0.6478469086 0.6963034625
0.3895888114 0.4668297271 0.8021941176
0.3182812892 0.4727171836 0.8040877382
0.3899939352 0.7979464426 0.9104736398
0.3180514318 0.802088292 0.913475118
0.3541735274 0.9699363421 0.8039198491
0.2822537224 0.9781565643 0.807150267
0.2819661133 0.3056285859 0.9165781717
0.3538229948 0.2996753858 0.9146082379
0.4250673062 0.9413423922 0.4654901599
0.5306178396 0.4785343623 0.4686411067
0.4605572939 0.4471451741 0.4659890905
0.5319625056 0.815005784 0.5814725813
0.4607928978 0.7986084131 0.5793921249
0.495524356 0.9597710149 0.4687074203
0.4252799244 0.2950325245 0.5752122652
0.4965041233 0.3069978672 0.5792584452
0.4969149934 0.6439408296 0.6942693203
0.5327095422 0.1488617399 0.6943403706
0.4612985842 0.1398843323 0.6905510241
0.4255816123 0.6327213371 0.6933046159
0.533195116 0.4775527417 0.806179247
0.4618559884 0.472356727 0.8070313236
0.5337036756 0.8065475245 0.9128698752
0.4617065811 0.8023603347 0.9145066623
0.4972195545 0.9764698998 0.8056508437
0.4258373286 0.9685738618 0.8013225679
0.425604598 0.2983015704 0.9092973635
0.4977913249 0.3039781938 0.9163166015
0.6001841917 0.5061172203 0.4625860468
0.6355333918 0.0134185039 0.4582846123
0.6711296885 0.5176540958 0.4538931808
0.6742155245 0.834898903 0.5653652274
0.6028792701 0.8289638391 0.5735002174
0.5650935813 0.9945017937 0.4668580087
0.5675214505 0.3227922103 0.5796910622
0.6382859345 0.3329031289 0.5694856154
0.639610488 0.6563165033 0.681430804
0.6749941666 0.15615475 0.6761704543
0.6040601627 0.1532620298 0.6888316082
0.5683633033 0.6525713827 0.6929504172
0.6759825536 0.477686496 0.7900013691
0.6051002676 0.4801371469 0.7988294937
0.6773300928 0.801877459 0.8977609088
0.6058645436 0.8052575889 0.9103846955
0.6404322283 0.9791608551 0.79709271
0.5691333257 0.9783084547 0.8050624424
0.5699062214 0.3075940941 0.9101731236
0.6414809528 0.3046378972 0.9057148523
0.8164283185 0.5148089831 0.4417151687
0.7435405264 0.5180258875 0.4459655523
0.7799298313 0.016302156 0.4431488047
0.817767238 0.8372384698 0.5517651578
0.7456465951 0.8366581122 0.5565439447
0.7071885733 0.0184716962 0.4498133178
0.7097830891 0.3372966178 0.5603827632
0.7816537621 0.3372059369 0.5543529656
0.7823979255 0.6572754536 0.6648792545
0.8181378831 0.1562204937 0.6634561444
0.7466924465 0.154916956 0.6671781247
0.71100708 0.6531585415 0.674651558
0.8183591209 0.4774280555 0.7760592057
0.7475457922 0.4737781499 0.7818542742
0.8190889183 0.7995016198 0.8837661155
0.7479997606 0.8003109467 0.8854276387
0.7830357799 0.9797026733 0.780432743
0.7114495555 0.9788140007 0.7821511064
0.712590223 0.2998567476 0.8928784412
0.7835903109 0.300305618 0.8907353552
0.8531394238 0.0177530502 0.4407994099
0.9629480661 0.5127686632 0.4380479234
0.889612052 0.5152850577 0.4390131541
0.9619970309 0.8349442435 0.5494868132
0.8897729522 0.8373654231 0.5516898971
0.9261852428 0.0109610519 0.4378163522
0.8538289961 0.3386795012 0.5532640548
0.9259553854 0.3350091924 0.5464158637
0.9257197815 0.6531562744 0.6607336042
0.9614741053 0.1544182111 0.662461441
0.8899740775 0.157993305 0.6635587725
0.8539784034 0.6568945939 0.6654613402
0.9609684189 0.4747507024 0.7762265685
0.8898275433 0.4792076679 0.7757529002
0.9605661684 0.799215975 0.8824551069
0.889810304 0.8000797104 0.8844045152
0.9254841777 0.974853513 0.7723272257
0.8543260628 0.9802036852 0.7736108668
0.8543174431 0.2995711028 0.8839103212
0.9251968559 0.2972768764 0.8817556567
0.0827590195 0.660596641 0.0089312791
0.1215695852 0.1681404959 0.0108038478
0.0439004712 0.1601175047 0.0069766079
0.1200686161 0.5117099639 0.1187028565
0.0048775747 0.6586039286 0.0056882301
0.0425555179 0.5054597839 0.111446258
0.0815968029 0.005744634 0.1123267548
0.0041730617 0.0049398412 0.1093710645
0.1176025332 0.8554721287 0.2290223102
0.0414840949 0.8500267416 0.2202099745
0.0031490468 0.3473485938 0.2198447236
0.0795390042 0.3499851405 0.2202952348
0.0771372814 0.689306209 0.334010364
0.1147471292 0.1950160431 0.3416048458
0.039854693 0.1881855054 0.3323962077
0.002141122 0.6861890536 0.3297384022
0.2362624106 0.6841169954 0.028205895
0.273917368 0.185170366 0.0301784604
0.1978204788 0.1764128596 0.0216619042
0.2729769638 0.53079829 0.1350544127
0.1595546753 0.6731491424 0.0138621661
0.1956256277 0.5216508558 0.1247073917
0.2342477102 0.0279183773 0.1335070962
0.1579795772 0.0142006265 0.1234211191
0.2715087494 0.8781808892 0.2464190945
0.19437233 0.8626200494 0.2412303213
0.1558258131 0.357931053 0.2336974164
0.2326151478 0.3745097857 0.2431560462
0.2309923543 0.7186210719 0.3562122501
0.2705318553 0.233768519 0.3552059681
0.1915930663 0.2076592254 0.348447774
0.1527816387 0.6989886604 0.3440621317
0.3890141678 0.6849829978 0.0315126261
0.4274549503 0.1833748845 0.0300642537
0.3507026802 0.1852315756 0.0323883862
0.4273543877 0.5288078446 0.1361259557
0.3122935031 0.6845658658 0.028445887
0.3497487718 0.5333985644 0.1353670338
0.3888130426 0.0303667612 0.1365954136
0.3113079893 0.0290314852 0.1340976027
0.4277077935 0.882064298 0.2466285611
0.3489902423 0.8837690987 0.2486295466
0.3103741935 0.3812609776 0.2458196409
0.3881522025 0.3842715829 0.2463385709
0.3884596368 0.748260119 0.3557175299
0.4275239076 0.2474182591 0.3541381092
0.3492804373 0.2472255623 0.3569669616
0.3100064216 0.7421164891 0.3589390007
0.5418147698 0.6808796878 0.027757489
0.5035636197 0.1831391142 0.0248517971
0.4656917343 0.6832986004 0.0306768647
0.5050634394 0.526280115 0.1353333507
0.5427859174 0.027272276 0.1321813513
0.4664617567 0.0281201423 0.1370101365
0.5059656299 0.8772899495 0.2472801182
0.4668697537 0.3818050629 0.2438176029
0.5449609434 0.3710865823 0.2447102045
0.5466101705 0.7234747663 0.3519650243
0.5059340245 0.2376179226 0.3555591141
0.466637023 0.7443744431 0.356039098
0.695396887 0.6675495978 0.013630595
0.6569934564 0.1693465517 0.0158842035
0.5797958374 0.1755944646 0.0209240343
0.6181360573 0.672079108 0.0168315401
0.6579674772 0.5149948789 0.1192138919
0.5819220187 0.5177946512 0.1273420401
0.6965030759 0.0107842242 0.1193691499
0.6199490578 0.0162318783 0.1218569611
0.6596971544 0.8567620643 0.2341295071
0.5834333313 0.8655694452 0.2364341666
0.6217045939 0.3596879951 0.2367399458
0.6977787847 0.355058736 0.2285744305
0.7005945382 0.6938719915 0.3404296221
0.6626680617 0.1981604027 0.3444200145
0.5858583272 0.2092529419 0.3513987275
0.6241439559 0.7033390759 0.3480825231
0.8497518999 0.657726591 0.0012741677
0.8108830079 0.1583333583 0.0036935602
0.7335905728 0.1662361974 0.0112322544
0.7721146786 0.6616757435 0.010043347
0.8122995043 0.5017146634 0.1089431842
0.7348950137 0.5096084344 0.1181449805
0.8501254182 0.0014168888 0.1078195377
0.773465091 0.0072476697 0.1129219979
0.8129603445 0.8450302248 0.2206194344
0.7363948335 0.853148431 0.2281033937
0.7748269963 0.3485410474 0.2236788054
0.8508896942 0.3454306931 0.2205704887
0.8516539701 0.6856517694 0.3317814915
0.8141441102 0.1851499628 0.3305862684
0.7384807897 0.1924316378 0.3369313185
0.7765940253 0.6879958702 0.332695145
0.9659649449 0.1554723764 0.0029420065
0.8883047378 0.1576056442 0.0027304346
0.9270213493 0.6558041563 0.0
0.9652523868 0.5003771203 0.1067790463
0.8886092989 0.5017464017 0.1080605822
0.9268719419 -0.0011357781 0.1065058976
0.9650685009 0.8438082999 0.2159511701
0.888715608 0.8438604414 0.2188294945
0.9270242225 0.342143511 0.2177090058
0.9645398288 0.1811622709 0.3281610867
0.8893132373 0.1838849645 0.3279874083
0.9269207866 0.6816504753 0.3270569133
